
-3.68
-3.52
-3.52
-3.48
-3.48
-3.48
-3.36
-3.36
-3.36
-3.36
-3.36
-3.36
-3.32
-3.28
-3.28
-3.24
-3.24
-3.2
-3.16
-3.16
-0.24
-0.24
-0.12
-0.12
-0.12
-0.12
-0.12
-0.12
-0.12
-0.12
-0.12
-0.12
-0.12
-0.12
-0.12
-0.12